; SLOAD TIMESTAMP SWAP1 DUP2 => TIMESTAMP SWAP1 SLOAD TIMESTAMP
(set-option :produce-proofs true)
; 
(set-info :status unknown)
(declare-fun storage_t ((_ BitVec 256) (_ BitVec 256) (_ BitVec 256) Int (_ BitVec 256)) (_ BitVec 256))
(declare-fun storage_s ((_ BitVec 256) (_ BitVec 256) (_ BitVec 256) Int (_ BitVec 256)) (_ BitVec 256))
(declare-fun exc_halt_t (Int) Bool)
(declare-fun exc_halt_s (Int) Bool)
(declare-fun stack_t ((_ BitVec 256) (_ BitVec 256) (_ BitVec 256) Int (_ BitVec 6)) (_ BitVec 256))
(declare-fun stack_s ((_ BitVec 256) (_ BitVec 256) (_ BitVec 256) Int (_ BitVec 6)) (_ BitVec 256))
(declare-fun sc_t (Int) (_ BitVec 6))
(declare-fun sc_s (Int) (_ BitVec 6))
(declare-fun used_gas_t ((_ BitVec 256) (_ BitVec 256) (_ BitVec 256) Int) Int)
(declare-fun used_gas_s ((_ BitVec 256) (_ BitVec 256) (_ BitVec 256) Int) Int)
(assert
 (exists ((x_0 (_ BitVec 256)) (x_SLOAD_0 (_ BitVec 256)) (x_TIMESTAMP (_ BitVec 256)) )(let (($x6874 (forall ((w (_ BitVec 256)) )(let ((?x607 (storage_t x_0 x_SLOAD_0 x_TIMESTAMP 4 w)))
 (let ((?x8376 (storage_s x_0 x_SLOAD_0 x_TIMESTAMP 4 w)))
 (= ?x8376 ?x607))))
 ))
 (let (($x7854 (exc_halt_t 4)))
 (let (($x3743 (exc_halt_s 4)))
 (let (($x5962 (= $x3743 $x7854)))
 (let (($x8405 (forall ((n (_ BitVec 6)) )(let ((?x667 (stack_t x_0 x_SLOAD_0 x_TIMESTAMP 4 n)))
 (let ((?x847 (stack_s x_0 x_SLOAD_0 x_TIMESTAMP 4 n)))
 (let (($x10061 (= ?x847 ?x667)))
 (let ((?x8101 (sc_t 4)))
 (let (($x4028 (bvsle ?x8101 n)))
 (or $x4028 $x10061)))))))
 ))
 (let ((?x8101 (sc_t 4)))
 (let ((?x500 (sc_s 4)))
 (let (($x4280 (= ?x500 ?x8101)))
 (let ((?x2289 (used_gas_t x_0 x_SLOAD_0 x_TIMESTAMP 0)))
 (let ((?x2066 (used_gas_s x_0 x_SLOAD_0 x_TIMESTAMP 0)))
 (let (($x871 (= ?x2066 ?x2289)))
 (let (($x11584 (forall ((w (_ BitVec 256)) )(let ((?x8931 (storage_t x_0 x_SLOAD_0 x_TIMESTAMP 0 w)))
 (let ((?x1969 (storage_s x_0 x_SLOAD_0 x_TIMESTAMP 0 w)))
 (= ?x1969 ?x8931))))
 ))
 (let (($x56 (exc_halt_t 0)))
 (let (($x57 (exc_halt_s 0)))
 (let (($x58 (= $x57 $x56)))
 (let (($x3841 (forall ((n (_ BitVec 6)) )(let ((?x4599 (stack_t x_0 x_SLOAD_0 x_TIMESTAMP 0 n)))
 (let ((?x9641 (stack_s x_0 x_SLOAD_0 x_TIMESTAMP 0 n)))
 (let (($x6752 (= ?x9641 ?x4599)))
 (let ((?x63 (sc_t 0)))
 (let (($x632 (bvsle ?x63 n)))
 (or $x632 $x6752)))))))
 ))
 (let ((?x63 (sc_t 0)))
 (let ((?x72 (sc_s 0)))
 (let (($x73 (= ?x72 ?x63)))
 (let (($x4112 (exc_halt_t 3)))
 (let (($x7490 (or $x4112 (not (= ((_ extract 6 6) (bvadd (_ bv1 7) (concat (_ bv0 1) (sc_t 3)))) (_ bv0 1))))))
 (let (($x3409 (forall ((w (_ BitVec 256)) )(let ((?x3554 (storage_t x_0 x_SLOAD_0 x_TIMESTAMP 3 w)))
 (let ((?x607 (storage_t x_0 x_SLOAD_0 x_TIMESTAMP 4 w)))
 (= ?x607 ?x3554))))
 ))
 (let (($x3069 (forall ((n (_ BitVec 6)) )(let ((?x5648 (stack_t x_0 x_SLOAD_0 x_TIMESTAMP 3 n)))
 (let ((?x667 (stack_t x_0 x_SLOAD_0 x_TIMESTAMP 4 n)))
 (let (($x7168 (= ?x667 ?x5648)))
 (let ((?x11964 (sc_t 3)))
 (let (($x6076 (bvsle ?x11964 n)))
 (or $x6076 $x7168)))))))
 ))
 (let ((?x10245 (used_gas_t x_0 x_SLOAD_0 x_TIMESTAMP 4)))
 (let (($x3954 (= $x4112 (or (exc_halt_t 2) (not (bvsle (_ bv0 6) (bvadd (_ bv63 6) (sc_t 2))))))))
 (let (($x9000 (forall ((w (_ BitVec 256)) )(let ((?x5575 (storage_t x_0 x_SLOAD_0 x_TIMESTAMP 2 w)))
 (let ((?x3554 (storage_t x_0 x_SLOAD_0 x_TIMESTAMP 3 w)))
 (= ?x3554 ?x5575))))
 ))
 (let (($x993 (forall ((n (_ BitVec 6)) )(let ((?x6017 (stack_t x_0 x_SLOAD_0 x_TIMESTAMP 2 n)))
 (let ((?x5648 (stack_t x_0 x_SLOAD_0 x_TIMESTAMP 3 n)))
 (let (($x8389 (= ?x5648 ?x6017)))
 (let ((?x6602 (sc_t 2)))
 (let ((?x8103 (bvadd (_ bv63 6) ?x6602)))
 (let (($x3046 (bvsle ?x8103 n)))
 (or $x3046 $x8389))))))))
 ))
 (let ((?x6602 (sc_t 2)))
 (let ((?x11964 (sc_t 3)))
 (let (($x11444 (= ?x11964 ?x6602)))
 (let ((?x4524 (used_gas_t x_0 x_SLOAD_0 x_TIMESTAMP 3)))
 (let ((?x8103 (bvadd (_ bv63 6) ?x6602)))
 (let ((?x6339 (stack_t x_0 x_SLOAD_0 x_TIMESTAMP 2 ?x8103)))
 (let ((?x3587 (bvadd (_ bv63 6) ?x11964)))
 (let ((?x7619 (stack_t x_0 x_SLOAD_0 x_TIMESTAMP 3 ?x3587)))
 (let (($x9181 (exc_halt_t 2)))
 (let (($x6587 (= $x9181 (or (exc_halt_t 1) (not (bvsle (_ bv0 6) (bvadd (_ bv62 6) (sc_t 1))))))))
 (let (($x1022 (forall ((w (_ BitVec 256)) )(let ((?x8947 (storage_t x_0 x_SLOAD_0 x_TIMESTAMP 1 w)))
 (let ((?x5575 (storage_t x_0 x_SLOAD_0 x_TIMESTAMP 2 w)))
 (= ?x5575 ?x8947))))
 ))
 (let (($x7806 (forall ((n (_ BitVec 6)) )(let ((?x9069 (stack_t x_0 x_SLOAD_0 x_TIMESTAMP 1 n)))
 (let ((?x6017 (stack_t x_0 x_SLOAD_0 x_TIMESTAMP 2 n)))
 (let (($x6321 (= ?x6017 ?x9069)))
 (let ((?x6377 (sc_t 1)))
 (let ((?x5970 (bvadd (_ bv62 6) ?x6377)))
 (let (($x5087 (bvsle ?x5970 n)))
 (or $x5087 $x6321))))))))
 ))
 (let ((?x6377 (sc_t 1)))
 (let (($x5631 (= ?x6602 ?x6377)))
 (let ((?x9411 (used_gas_t x_0 x_SLOAD_0 x_TIMESTAMP 2)))
 (let (($x10147 (= ?x9411 (+ 3 (used_gas_t x_0 x_SLOAD_0 x_TIMESTAMP 1)))))
 (let ((?x3243 (bvadd (_ bv63 6) ?x6377)))
 (let ((?x397 (stack_t x_0 x_SLOAD_0 x_TIMESTAMP 1 ?x3243)))
 (let ((?x3220 (bvadd (_ bv62 6) ?x6602)))
 (let ((?x11056 (stack_t x_0 x_SLOAD_0 x_TIMESTAMP 2 ?x3220)))
 (let (($x9657 (= ?x11056 ?x397)))
 (let ((?x5970 (bvadd (_ bv62 6) ?x6377)))
 (let ((?x9838 (stack_t x_0 x_SLOAD_0 x_TIMESTAMP 1 ?x5970)))
 (let (($x1710 (= ?x6339 ?x9838)))
 (let (($x5011 (exc_halt_t 1)))
 (let (($x7243 (= $x5011 (or $x56 (not (= ((_ extract 6 6) (bvadd (_ bv1 7) (concat (_ bv0 1) ?x63))) (_ bv0 1)))))))
 (let (($x7782 (forall ((w (_ BitVec 256)) )(let ((?x8931 (storage_t x_0 x_SLOAD_0 x_TIMESTAMP 0 w)))
 (let ((?x8947 (storage_t x_0 x_SLOAD_0 x_TIMESTAMP 1 w)))
 (= ?x8947 ?x8931))))
 ))
 (let (($x10618 (forall ((n (_ BitVec 6)) )(let ((?x4599 (stack_t x_0 x_SLOAD_0 x_TIMESTAMP 0 n)))
 (let ((?x9069 (stack_t x_0 x_SLOAD_0 x_TIMESTAMP 1 n)))
 (let (($x2785 (= ?x9069 ?x4599)))
 (let ((?x63 (sc_t 0)))
 (let (($x632 (bvsle ?x63 n)))
 (or $x632 $x2785)))))))
 ))
 (let (($x11310 (= ?x6377 (bvadd (_ bv1 6) ?x63))))
 (let ((?x4233 (used_gas_t x_0 x_SLOAD_0 x_TIMESTAMP 1)))
 (let (($x7078 (= ?x4233 (+ 2 ?x2289))))
 (let (($x10822 (not (= ((_ extract 6 6) (bvadd (_ bv1 7) (concat (_ bv0 1) (sc_s 3)))) (_ bv0 1)))))
 (let (($x8780 (exc_halt_s 3)))
 (let (($x5641 (not (bvsle (_ bv0 6) (bvadd (_ bv62 6) (sc_s 3))))))
 (let (($x3089 (= $x3743 (or $x5641 $x8780 $x10822))))
 (let (($x3926 (forall ((w (_ BitVec 256)) )(let ((?x9681 (storage_s x_0 x_SLOAD_0 x_TIMESTAMP 3 w)))
 (let ((?x8376 (storage_s x_0 x_SLOAD_0 x_TIMESTAMP 4 w)))
 (= ?x8376 ?x9681))))
 ))
 (let (($x7448 (forall ((n (_ BitVec 6)) )(let ((?x2518 (stack_s x_0 x_SLOAD_0 x_TIMESTAMP 3 n)))
 (let ((?x847 (stack_s x_0 x_SLOAD_0 x_TIMESTAMP 4 n)))
 (let (($x8200 (= ?x847 ?x2518)))
 (let ((?x1974 (sc_s 3)))
 (let ((?x7556 (bvadd (_ bv62 6) ?x1974)))
 (let (($x4724 (bvsle ?x7556 n)))
 (or $x4724 $x8200))))))))
 ))
 (let (($x4419 (= ?x500 (bvadd (_ bv1 6) (sc_s 3)))))
 (let ((?x11693 (used_gas_s x_0 x_SLOAD_0 x_TIMESTAMP 4)))
 (let (($x6193 (= ?x11693 (+ 3 (used_gas_s x_0 x_SLOAD_0 x_TIMESTAMP 3)))))
 (let ((?x1974 (sc_s 3)))
 (let ((?x2640 (bvadd (_ bv63 6) ?x1974)))
 (let ((?x6548 (stack_s x_0 x_SLOAD_0 x_TIMESTAMP 3 ?x2640)))
 (let (($x8735 (= (stack_s x_0 x_SLOAD_0 x_TIMESTAMP 4 ?x2640) ?x6548)))
 (let ((?x7556 (bvadd (_ bv62 6) ?x1974)))
 (let ((?x2231 (stack_s x_0 x_SLOAD_0 x_TIMESTAMP 3 ?x7556)))
 (let (($x650 (= (stack_s x_0 x_SLOAD_0 x_TIMESTAMP 4 ?x7556) ?x2231)))
 (let (($x9458 (= $x8780 (or (exc_halt_s 2) (not (bvsle (_ bv0 6) (bvadd (_ bv62 6) (sc_s 2))))))))
 (let (($x4851 (forall ((w (_ BitVec 256)) )(let ((?x10013 (storage_s x_0 x_SLOAD_0 x_TIMESTAMP 2 w)))
 (let ((?x9681 (storage_s x_0 x_SLOAD_0 x_TIMESTAMP 3 w)))
 (= ?x9681 ?x10013))))
 ))
 (let (($x4570 (forall ((n (_ BitVec 6)) )(let ((?x2620 (sc_s 2)))
 (let ((?x11644 (bvadd (_ bv62 6) ?x2620)))
 (let (($x6809 (bvsle ?x11644 n)))
 (let ((?x11291 (stack_s x_0 x_SLOAD_0 x_TIMESTAMP 2 n)))
 (let ((?x2518 (stack_s x_0 x_SLOAD_0 x_TIMESTAMP 3 n)))
 (let (($x2517 (= ?x2518 ?x11291)))
 (or $x2517 $x6809))))))))
 ))
 (let ((?x2620 (sc_s 2)))
 (let (($x7925 (= ?x1974 ?x2620)))
 (let ((?x860 (used_gas_s x_0 x_SLOAD_0 x_TIMESTAMP 3)))
 (let (($x2025 (= ?x860 (+ 3 (used_gas_s x_0 x_SLOAD_0 x_TIMESTAMP 2)))))
 (let (($x10267 (not (= ((_ extract 6 6) (bvadd (_ bv1 7) (concat (_ bv0 1) (sc_s 1)))) (_ bv0 1)))))
 (let (($x10558 (exc_halt_s 1)))
 (let (($x3200 (exc_halt_s 2)))
 (let (($x10852 (forall ((w (_ BitVec 256)) )(let ((?x11131 (storage_s x_0 x_SLOAD_0 x_TIMESTAMP 1 w)))
 (let ((?x10013 (storage_s x_0 x_SLOAD_0 x_TIMESTAMP 2 w)))
 (= ?x10013 ?x11131))))
 ))
 (let (($x9742 (forall ((n (_ BitVec 6)) )(let ((?x3752 (stack_s x_0 x_SLOAD_0 x_TIMESTAMP 1 n)))
 (let ((?x11291 (stack_s x_0 x_SLOAD_0 x_TIMESTAMP 2 n)))
 (let (($x3248 (= ?x11291 ?x3752)))
 (or $x3248 (bvsle (sc_s 1) n))))))
 ))
 (let (($x10641 (= ?x2620 (bvadd (_ bv1 6) (sc_s 1)))))
 (let ((?x9513 (used_gas_s x_0 x_SLOAD_0 x_TIMESTAMP 2)))
 (let (($x1491 (forall ((w (_ BitVec 256)) )(let ((?x1969 (storage_s x_0 x_SLOAD_0 x_TIMESTAMP 0 w)))
 (let ((?x11131 (storage_s x_0 x_SLOAD_0 x_TIMESTAMP 1 w)))
 (= ?x11131 ?x1969))))
 ))
 (let (($x6890 (forall ((n (_ BitVec 6)) )(let ((?x72 (sc_s 0)))
 (let ((?x4384 (bvadd (_ bv63 6) ?x72)))
 (let (($x10836 (bvsle ?x4384 n)))
 (let ((?x9641 (stack_s x_0 x_SLOAD_0 x_TIMESTAMP 0 n)))
 (let ((?x3752 (stack_s x_0 x_SLOAD_0 x_TIMESTAMP 1 n)))
 (let (($x5674 (= ?x3752 ?x9641)))
 (or $x5674 $x10836))))))))
 ))
 (let ((?x154 (sc_s 1)))
 (let (($x4551 (= ?x154 ?x72)))
 (let ((?x4384 (bvadd (_ bv63 6) ?x72)))
 (let ((?x11635 (stack_s x_0 x_SLOAD_0 x_TIMESTAMP 0 ?x4384)))
 (let ((?x8586 (bvadd (_ bv63 6) ?x154)))
 (let ((?x10673 (stack_s x_0 x_SLOAD_0 x_TIMESTAMP 1 ?x8586)))
 (let (($x4922 (forall ((w (_ BitVec 256)) )(let ((?x355 (ite (= w (stack_s x_0 x_SLOAD_0 x_TIMESTAMP 0 (bvadd (_ bv63 6) (sc_s 0)))) x_SLOAD_0 (_ bv0 256))))
 (let ((?x1969 (storage_s x_0 x_SLOAD_0 x_TIMESTAMP 0 w)))
 (= ?x1969 ?x355))))
 ))
 (let (($x5059 (= ?x2066 0)))
 (let (($x10917 (not $x57)))
 (let (($x7573 (= (stack_s x_0 x_SLOAD_0 x_TIMESTAMP 0 (_ bv0 6)) x_0)))
 (let (($x87 (= ?x72 (_ bv1 6))))
 (and $x87 $x7573 $x10917 $x5059 $x4922 (= ?x10673 (storage_s x_0 x_SLOAD_0 x_TIMESTAMP 0 ?x11635)) (= (used_gas_s x_0 x_SLOAD_0 x_TIMESTAMP 1) (+ 200 ?x2066)) $x4551 $x6890 $x1491 (= $x10558 (or $x57 (not (bvsle (_ bv0 6) ?x4384)))) (= (stack_s x_0 x_SLOAD_0 x_TIMESTAMP 2 ?x154) x_TIMESTAMP) (= ?x9513 (+ 2 (used_gas_s x_0 x_SLOAD_0 x_TIMESTAMP 1))) $x10641 $x9742 $x10852 (= $x3200 (or $x10558 $x10267)) (= ?x6548 (stack_s x_0 x_SLOAD_0 x_TIMESTAMP 2 (bvadd (_ bv62 6) ?x2620))) (= ?x2231 (stack_s x_0 x_SLOAD_0 x_TIMESTAMP 2 (bvadd (_ bv63 6) ?x2620))) $x2025 $x7925 $x4570 $x4851 $x9458 (= (stack_s x_0 x_SLOAD_0 x_TIMESTAMP 4 (bvadd (_ bv63 6) ?x500)) ?x2231) $x650 $x8735 $x6193 $x4419 $x7448 $x3926 $x3089 (= (stack_t x_0 x_SLOAD_0 x_TIMESTAMP 1 ?x63) x_TIMESTAMP) $x7078 $x11310 $x10618 $x7782 $x7243 $x1710 $x9657 $x10147 $x5631 $x7806 $x1022 $x6587 (= ?x7619 (storage_t x_0 x_SLOAD_0 x_TIMESTAMP 2 ?x6339)) (= ?x4524 (+ 200 ?x9411)) $x11444 $x993 $x9000 $x3954 (= (stack_t x_0 x_SLOAD_0 x_TIMESTAMP 4 ?x11964) x_TIMESTAMP) (= ?x10245 (+ 2 ?x4524)) (= ?x8101 (bvadd (_ bv1 6) ?x11964)) $x3069 $x3409 (= $x7854 $x7490) $x73 $x3841 $x58 $x11584 $x871 (not (and $x4280 $x8405 $x5962 $x6874)))))))))))))))))))))))))))))))))))))))))))))))))))))))))))))))))))))))))))))))))))))))))))))))))))))))))
 )
(check-sat)
(get-proof)
